20
587 233 220
90 73 37
102 95 33
117 38 30
75 73 57
86 36 34
101 81 62
90 66 65
76 69 51
65 30 30
61 46 37
96 52 45
112 57 27
103 93 54
110 84 68
92 30 27
116 48 33
70 43 40
87 64 54
88 82 32
102 76 45
thpack7_73